p cnf 7230 17
-6893 -6935 6970 0
-4432 -6939 -6975 0
-4428 -6941 -6973 0
-6895 -6937 -6971 0
4432 -6976 0
4428 -6974 0
6895 -6972 0
6975 6976 0
6973 6974 0
6971 6972 0
6939 -6976 0
6941 -6974 0
6937 -6972 0
-6969 -6970 0
6947 -6978 0
6905 -6978 0
6969 6970 0
